upa.lp
\Problem name: 

Minimize
obj: u0 + u1 + u2 + u3 + u4 + u5 + u6 + u7 + u8 + u9
 + u10 + u11 + u12 + u13 + u14 + u15 + u16 + u17 + u18 + u19
 + u20 + u21 + u22 + u23 + u24 + u25 + u26 + u27 + u28 + u29
 + u30 + u31 + u32 + u33 + u34 + u35 + u36 + u37 + u38 + u39
 + u40 + u41 + u42 + u43 + u44 + u45 + u46 + u47 + u48 + u49
 + u50 + u51 + u52 + u53 + u54 + u55 + u56 + u57 + u58 + u59
Subject To
Raio_15_Distrito_0:  u0 + u17 + u19 + u21 + u33 + u37 + u51 + u55 >= 1
Raio_15_Distrito_1:  u1 + u3 + u5 + u16 + u26 + u53 + u59 >= 1
Raio_15_Distrito_2:  u2 + u43 + u53 >= 1
Raio_15_Distrito_3:  u1 + u3 + u5 + u16 + u26 + u53 + u59 >= 1
Raio_15_Distrito_4:  u4 + u31 + u32 + u37 + u40 + u42 + u54 >= 1
Raio_15_Distrito_5:  u1 + u3 + u5 + u15 + u16 + u26 + u43 + u53 + u59 >= 1
Raio_15_Distrito_6:  u6 + u22 >= 1
Raio_15_Distrito_7:  u7 + u9 + u36 + u56 >= 1
Raio_15_Distrito_8:  u8 + u9 + u11 + u27 + u39 + u58 >= 1
Raio_15_Distrito_9:  u7 + u8 + u9 + u11 + u36 + u39 + u56 + u58 >= 1
Raio_15_Distrito_10:  u10 >= 1
Raio_15_Distrito_11:  u8 + u9 + u11 + u27 + u39 + u56 + u58 >= 1
Raio_15_Distrito_12:  u12 + u18 >= 1
Raio_15_Distrito_13:  u13 + u24 >= 1
Raio_15_Distrito_14:  u14 + u38 + u41 + u42 >= 1
Raio_15_Distrito_15:  u5 + u15 + u16 + u46 >= 1
Raio_15_Distrito_16:  u1 + u3 + u5 + u15 + u16 + u26 + u43 + u53 >= 1
Raio_15_Distrito_17:  u0 + u17 + u19 + u20 + u51 + u55 >= 1
Raio_15_Distrito_18:  u12 + u18 + u38 >= 1
Raio_15_Distrito_19:  u0 + u17 + u19 + u20 + u21 + u49 + u55 >= 1
Raio_15_Distrito_20:  u17 + u19 + u20 + u55 >= 1
Raio_15_Distrito_21:  u0 + u19 + u21 + u49 >= 1
Raio_15_Distrito_22:  u6 + u22 >= 1
Raio_15_Distrito_23:  u23 + u28 + u29 + u44 + u46 >= 1
Raio_15_Distrito_24:  u13 + u24 >= 1
Raio_15_Distrito_25:  u25 + u47 + u57 >= 1
Raio_15_Distrito_26:  u1 + u3 + u5 + u16 + u26 + u50 + u53 + u59 >= 1
Raio_15_Distrito_27:  u8 + u11 + u27 + u58 >= 1
Raio_15_Distrito_28:  u23 + u28 + u34 + u45 >= 1
Raio_15_Distrito_29:  u23 + u29 + u46 >= 1
Raio_15_Distrito_30:  u30 >= 1
Raio_15_Distrito_31:  u4 + u31 + u32 + u40 + u54 >= 1
Raio_15_Distrito_32:  u4 + u31 + u32 + u40 >= 1
Raio_15_Distrito_33:  u0 + u33 + u37 + u38 + u42 >= 1
Raio_15_Distrito_34:  u28 + u34 + u39 + u44 + u45 + u48 >= 1
Raio_15_Distrito_35:  u35 >= 1
Raio_15_Distrito_36:  u7 + u9 + u36 + u56 >= 1
Raio_15_Distrito_37:  u0 + u4 + u33 + u37 + u51 + u55 >= 1
Raio_15_Distrito_38:  u14 + u18 + u33 + u38 + u41 + u42 >= 1
Raio_15_Distrito_39:  u8 + u9 + u11 + u34 + u39 + u45 + u48 + u56 + u58 >= 1
Raio_15_Distrito_40:  u4 + u31 + u32 + u40 + u54 >= 1
Raio_15_Distrito_41:  u14 + u38 + u41 >= 1
Raio_15_Distrito_42:  u4 + u14 + u33 + u38 + u42 >= 1
Raio_15_Distrito_43:  u2 + u5 + u16 + u43 + u53 >= 1
Raio_15_Distrito_44:  u23 + u34 + u44 + u46 + u48 + u52 >= 1
Raio_15_Distrito_45:  u28 + u34 + u39 + u45 + u48 >= 1
Raio_15_Distrito_46:  u15 + u23 + u29 + u44 + u46 + u50 + u52 >= 1
Raio_15_Distrito_47:  u25 + u47 + u57 >= 1
Raio_15_Distrito_48:  u34 + u39 + u44 + u45 + u48 >= 1
Raio_15_Distrito_49:  u19 + u21 + u49 >= 1
Raio_15_Distrito_50:  u26 + u46 + u50 + u52 >= 1
Raio_15_Distrito_51:  u0 + u17 + u37 + u51 + u55 >= 1
Raio_15_Distrito_52:  u44 + u46 + u50 + u52 >= 1
Raio_15_Distrito_53:  u1 + u2 + u3 + u5 + u16 + u26 + u43 + u53 + u59 >= 1
Raio_15_Distrito_54:  u4 + u31 + u40 + u54 + u57 >= 1
Raio_15_Distrito_55:  u0 + u17 + u19 + u20 + u37 + u51 + u55 >= 1
Raio_15_Distrito_56:  u7 + u9 + u11 + u36 + u39 + u56 >= 1
Raio_15_Distrito_57:  u25 + u47 + u54 + u57 >= 1
Raio_15_Distrito_58:  u8 + u9 + u11 + u27 + u39 + u58 >= 1
Raio_15_Distrito_59:  u1 + u3 + u5 + u26 + u53 + u59 >= 1
Raio_20_Distrito_0:  u0 + u17 + u19 + u20 + u21 + u33 + u37 + u42 + u51 + u55
 >= 2
Raio_20_Distrito_1:  u1 + u2 + u3 + u5 + u16 + u26 + u43 + u50 + u53 + u59
 >= 2
Raio_20_Distrito_2:  u1 + u2 + u3 + u5 + u16 + u43 + u53 + u59 >= 2
Raio_20_Distrito_3:  u1 + u2 + u3 + u5 + u16 + u26 + u43 + u53 + u59 >= 2
Raio_20_Distrito_4:  u4 + u31 + u32 + u33 + u37 + u40 + u42 + u51 + u54 >= 2
Raio_20_Distrito_5:  u1 + u2 + u3 + u5 + u15 + u16 + u26 + u30 + u43 + u50
 + u53 + u59 >= 2
Raio_20_Distrito_6:  u6 + u22 >= 2
Raio_20_Distrito_7:  u7 + u9 + u11 + u22 + u36 + u39 + u56 >= 2
Raio_20_Distrito_8:  u8 + u9 + u11 + u27 + u34 + u39 + u48 + u56 + u58 >= 2
Raio_20_Distrito_9:  u7 + u8 + u9 + u11 + u27 + u34 + u36 + u39 + u48 + u56
 + u58 >= 2
Raio_20_Distrito_10:  u10 + u22 >= 2
Raio_20_Distrito_11:  u7 + u8 + u9 + u11 + u27 + u34 + u36 + u39 + u45 + u48
 + u56 + u58 >= 2
Raio_20_Distrito_12:  u12 + u18 >= 2
Raio_20_Distrito_13:  u13 + u24 + u47 >= 2
Raio_20_Distrito_14:  u14 + u18 + u33 + u38 + u41 + u42 >= 2
Raio_20_Distrito_15:  u5 + u15 + u16 + u26 + u29 + u30 + u46 + u50 + u53 >= 2
Raio_20_Distrito_16:  u1 + u2 + u3 + u5 + u15 + u16 + u26 + u30 + u43 + u46
 + u50 + u53 + u59 >= 2
Raio_20_Distrito_17:  u0 + u17 + u19 + u20 + u21 + u37 + u51 + u55 >= 2
Raio_20_Distrito_18:  u12 + u14 + u18 + u38 + u41 >= 2
Raio_20_Distrito_19:  u0 + u17 + u19 + u20 + u21 + u49 + u51 + u55 >= 2
Raio_20_Distrito_20:  u0 + u17 + u19 + u20 + u21 + u49 + u51 + u55 >= 2
Raio_20_Distrito_21:  u0 + u17 + u19 + u20 + u21 + u49 + u55 >= 2
Raio_20_Distrito_22:  u6 + u7 + u10 + u22 + u36 + u56 >= 2
Raio_20_Distrito_23:  u23 + u28 + u29 + u34 + u44 + u46 + u48 + u52 >= 2
Raio_20_Distrito_24:  u13 + u24 + u47 >= 2
Raio_20_Distrito_25:  u25 + u47 + u57 >= 2
Raio_20_Distrito_26:  u1 + u3 + u5 + u15 + u16 + u26 + u35 + u50 + u52 + u53
 + u59 >= 2
Raio_20_Distrito_27:  u8 + u9 + u11 + u27 + u58 >= 2
Raio_20_Distrito_28:  u23 + u28 + u34 + u39 + u44 + u45 + u48 >= 2
Raio_20_Distrito_29:  u15 + u23 + u29 + u32 + u37 + u44 + u46 + u51 >= 2
Raio_20_Distrito_30:  u5 + u15 + u16 + u30 + u32 + u43 >= 2
Raio_20_Distrito_31:  u4 + u31 + u32 + u33 + u40 + u42 + u54 + u57 >= 2
Raio_20_Distrito_32:  u4 + u29 + u30 + u31 + u32 + u37 + u40 + u54 >= 2
Raio_20_Distrito_33:  u0 + u4 + u14 + u31 + u33 + u37 + u38 + u40 + u42 + u51
 + u55 >= 2
Raio_20_Distrito_34:  u8 + u9 + u11 + u23 + u28 + u34 + u39 + u44 + u45 + u48
 + u52 + u56 + u58 >= 2
Raio_20_Distrito_35:  u26 + u35 + u50 + u52 >= 2
Raio_20_Distrito_36:  u7 + u9 + u11 + u22 + u36 + u56 >= 2
Raio_20_Distrito_37:  u0 + u4 + u17 + u29 + u32 + u33 + u37 + u42 + u51 + u55
 >= 2
Raio_20_Distrito_38:  u14 + u18 + u33 + u38 + u41 + u42 >= 2
Raio_20_Distrito_39:  u7 + u8 + u9 + u11 + u28 + u34 + u39 + u44 + u45 + u48
 + u56 + u58 >= 2
Raio_20_Distrito_40:  u4 + u31 + u32 + u33 + u40 + u42 + u54 + u57 >= 2
Raio_20_Distrito_41:  u14 + u18 + u38 + u41 + u42 >= 2
Raio_20_Distrito_42:  u0 + u4 + u14 + u31 + u33 + u37 + u38 + u40 + u41 + u42
 + u51 >= 2
Raio_20_Distrito_43:  u1 + u2 + u3 + u5 + u16 + u30 + u43 + u53 + u59 >= 2
Raio_20_Distrito_44:  u23 + u28 + u29 + u34 + u39 + u44 + u45 + u46 + u48 + u50
 + u52 >= 2
Raio_20_Distrito_45:  u11 + u28 + u34 + u39 + u44 + u45 + u48 + u56 >= 2
Raio_20_Distrito_46:  u15 + u16 + u23 + u29 + u44 + u46 + u50 + u52 >= 2
Raio_20_Distrito_47:  u13 + u24 + u25 + u47 + u57 >= 2
Raio_20_Distrito_48:  u8 + u9 + u11 + u23 + u28 + u34 + u39 + u44 + u45 + u48
 + u52 + u56 + u58 >= 2
Raio_20_Distrito_49:  u19 + u20 + u21 + u49 >= 2
Raio_20_Distrito_50:  u1 + u5 + u15 + u16 + u26 + u35 + u44 + u46 + u50 + u52
 >= 2
Raio_20_Distrito_51:  u0 + u4 + u17 + u19 + u20 + u29 + u33 + u37 + u42 + u51
 + u55 >= 2
Raio_20_Distrito_52:  u23 + u26 + u34 + u35 + u44 + u46 + u48 + u50 + u52 >= 2
Raio_20_Distrito_53:  u1 + u2 + u3 + u5 + u15 + u16 + u26 + u43 + u53 + u59
 >= 2
Raio_20_Distrito_54:  u4 + u31 + u32 + u40 + u54 + u57 >= 2
Raio_20_Distrito_55:  u0 + u17 + u19 + u20 + u21 + u33 + u37 + u51 + u55 >= 2
Raio_20_Distrito_56:  u7 + u8 + u9 + u11 + u22 + u34 + u36 + u39 + u45 + u48
 + u56 + u58 >= 2
Raio_20_Distrito_57:  u25 + u31 + u40 + u47 + u54 + u57 >= 2
Raio_20_Distrito_58:  u8 + u9 + u11 + u27 + u34 + u39 + u48 + u56 + u58 >= 2
Raio_20_Distrito_59:  u1 + u2 + u3 + u5 + u16 + u26 + u43 + u53 + u59 >= 2
Raio_25_Distrito_0:  u0 + u4 + u17 + u19 + u20 + u21 + u33 + u37 + u38 + u42
 + u51 + u55 >= 3
Raio_25_Distrito_1:  u1 + u2 + u3 + u5 + u15 + u16 + u26 + u35 + u43 + u50
 + u53 + u59 >= 3
Raio_25_Distrito_2:  u1 + u2 + u3 + u5 + u16 + u30 + u43 + u53 + u59 >= 3
Raio_25_Distrito_3:  u1 + u2 + u3 + u5 + u15 + u16 + u26 + u43 + u50 + u53
 + u59 >= 3
Raio_25_Distrito_4:  u0 + u4 + u14 + u29 + u31 + u32 + u33 + u37 + u40 + u42
 + u51 + u54 + u55 >= 3
Raio_25_Distrito_5:  u1 + u2 + u3 + u5 + u15 + u16 + u26 + u30 + u43 + u46
 + u50 + u53 + u59 >= 3
Raio_25_Distrito_6:  u6 + u10 + u22 + u36 >= 3
Raio_25_Distrito_7:  u7 + u8 + u9 + u11 + u22 + u36 + u39 + u45 + u56 + u58
 >= 3
Raio_25_Distrito_8:  u7 + u8 + u9 + u11 + u27 + u34 + u36 + u39 + u45 + u48
 + u52 + u56 + u58 >= 3
Raio_25_Distrito_9:  u7 + u8 + u9 + u11 + u27 + u34 + u36 + u39 + u45 + u48
 + u56 + u58 >= 3
Raio_25_Distrito_10:  u6 + u10 + u20 + u22 + u28 + u45 >= 3
Raio_25_Distrito_11:  u7 + u8 + u9 + u11 + u27 + u34 + u36 + u39 + u45 + u48
 + u56 + u58 >= 3
Raio_25_Distrito_12:  u12 + u18 + u38 >= 3
Raio_25_Distrito_13:  u13 + u24 + u25 + u47 >= 3
Raio_25_Distrito_14:  u4 + u14 + u18 + u31 + u33 + u38 + u40 + u41 + u42 >= 3
Raio_25_Distrito_15:  u1 + u3 + u5 + u15 + u16 + u23 + u26 + u29 + u30 + u32
 + u43 + u44 + u46 + u50 + u52 + u53 >= 3
Raio_25_Distrito_16:  u1 + u2 + u3 + u5 + u15 + u16 + u26 + u30 + u43 + u46
 + u50 + u52 + u53 + u59 >= 3
Raio_25_Distrito_17:  u0 + u17 + u19 + u20 + u21 + u33 + u37 + u49 + u51 + u55
 >= 3
Raio_25_Distrito_18:  u12 + u14 + u18 + u38 + u41 >= 3
Raio_25_Distrito_19:  u0 + u17 + u19 + u20 + u21 + u33 + u37 + u49 + u51 + u55
 >= 3
Raio_25_Distrito_20:  u0 + u10 + u17 + u19 + u20 + u21 + u37 + u49 + u51 + u55
 >= 3
Raio_25_Distrito_21:  u0 + u17 + u19 + u20 + u21 + u33 + u49 + u51 + u55 >= 3
Raio_25_Distrito_22:  u6 + u7 + u10 + u22 + u36 + u45 + u56 >= 3
Raio_25_Distrito_23:  u15 + u23 + u28 + u29 + u34 + u37 + u39 + u44 + u45 + u46
 + u48 + u50 + u51 + u52 >= 3
Raio_25_Distrito_24:  u13 + u24 + u47 >= 3
Raio_25_Distrito_25:  u13 + u25 + u30 + u47 + u54 + u57 >= 3
Raio_25_Distrito_26:  u1 + u3 + u5 + u15 + u16 + u26 + u35 + u43 + u46 + u50
 + u52 + u53 + u59 >= 3
Raio_25_Distrito_27:  u8 + u9 + u11 + u27 + u34 + u35 + u39 + u48 + u52 + u58
 >= 3
Raio_25_Distrito_28:  u10 + u23 + u28 + u29 + u34 + u39 + u44 + u45 + u48 + u56
 >= 3
Raio_25_Distrito_29:  u4 + u15 + u23 + u28 + u29 + u32 + u37 + u44 + u46 + u51
 + u55 >= 3
Raio_25_Distrito_30:  u2 + u5 + u15 + u16 + u25 + u30 + u32 + u43 + u46 + u53
 + u54 >= 3
Raio_25_Distrito_31:  u4 + u14 + u31 + u32 + u33 + u37 + u40 + u42 + u54 + u57
 >= 3
Raio_25_Distrito_32:  u4 + u15 + u29 + u30 + u31 + u32 + u37 + u40 + u42 + u46
 + u51 + u54 >= 3
Raio_25_Distrito_33:  u0 + u4 + u14 + u17 + u19 + u21 + u31 + u33 + u37 + u38
 + u40 + u41 + u42 + u51 + u55 >= 3
Raio_25_Distrito_34:  u8 + u9 + u11 + u23 + u27 + u28 + u34 + u39 + u44 + u45
 + u46 + u48 + u52 + u56 + u58 >= 3
Raio_25_Distrito_35:  u1 + u26 + u27 + u35 + u50 + u52 >= 3
Raio_25_Distrito_36:  u6 + u7 + u8 + u9 + u11 + u22 + u36 + u39 + u45 + u56
 + u58 >= 3
Raio_25_Distrito_37:  u0 + u4 + u17 + u19 + u20 + u23 + u29 + u31 + u32 + u33
 + u37 + u40 + u42 + u51 + u55 >= 3
Raio_25_Distrito_38:  u0 + u12 + u14 + u18 + u33 + u38 + u41 + u42 >= 3
Raio_25_Distrito_39:  u7 + u8 + u9 + u11 + u23 + u27 + u28 + u34 + u36 + u39
 + u44 + u45 + u48 + u52 + u56 + u58 >= 3
Raio_25_Distrito_40:  u4 + u14 + u31 + u32 + u33 + u37 + u40 + u42 + u54 + u57
 >= 3
Raio_25_Distrito_41:  u14 + u18 + u33 + u38 + u41 + u42 >= 3
Raio_25_Distrito_42:  u0 + u4 + u14 + u31 + u32 + u33 + u37 + u38 + u40 + u41
 + u42 + u51 + u54 + u55 >= 3
Raio_25_Distrito_43:  u1 + u2 + u3 + u5 + u15 + u16 + u26 + u30 + u43 + u53
 + u59 >= 3
Raio_25_Distrito_44:  u15 + u23 + u28 + u29 + u34 + u39 + u44 + u45 + u46 + u48
 + u50 + u52 >= 3
Raio_25_Distrito_45:  u7 + u8 + u9 + u10 + u11 + u22 + u23 + u28 + u34 + u36
 + u39 + u44 + u45 + u48 + u56 + u58 >= 3
Raio_25_Distrito_46:  u5 + u15 + u16 + u23 + u26 + u29 + u30 + u32 + u34 + u44
 + u46 + u48 + u50 + u52 >= 3
Raio_25_Distrito_47:  u13 + u24 + u25 + u47 + u57 >= 3
Raio_25_Distrito_48:  u8 + u9 + u11 + u23 + u27 + u28 + u34 + u39 + u44 + u45
 + u46 + u48 + u50 + u52 + u56 + u58 >= 3
Raio_25_Distrito_49:  u17 + u19 + u20 + u21 + u49 >= 3
Raio_25_Distrito_50:  u1 + u3 + u5 + u15 + u16 + u23 + u26 + u35 + u44 + u46
 + u48 + u50 + u52 + u53 >= 3
Raio_25_Distrito_51:  u0 + u4 + u17 + u19 + u20 + u21 + u23 + u29 + u32 + u33
 + u37 + u42 + u51 + u55 >= 3
Raio_25_Distrito_52:  u8 + u15 + u16 + u23 + u26 + u27 + u34 + u35 + u39 + u44
 + u46 + u48 + u50 + u52 + u58 >= 3
Raio_25_Distrito_53:  u1 + u2 + u3 + u5 + u15 + u16 + u26 + u30 + u43 + u50
 + u53 + u59 >= 3
Raio_25_Distrito_54:  u4 + u25 + u30 + u31 + u32 + u40 + u42 + u54 + u57 >= 3
Raio_25_Distrito_55:  u0 + u4 + u17 + u19 + u20 + u21 + u29 + u33 + u37 + u42
 + u51 + u55 >= 3
Raio_25_Distrito_56:  u7 + u8 + u9 + u11 + u22 + u28 + u34 + u36 + u39 + u45
 + u48 + u56 + u58 >= 3
Raio_25_Distrito_57:  u25 + u31 + u40 + u47 + u54 + u57 >= 3
Raio_25_Distrito_58:  u7 + u8 + u9 + u11 + u27 + u34 + u36 + u39 + u45 + u48
 + u52 + u56 + u58 >= 3
Raio_25_Distrito_59:  u1 + u2 + u3 + u5 + u16 + u26 + u43 + u53 + u59 >= 3
Raio_30_Distrito_0:  u0 + u4 + u14 + u17 + u19 + u20 + u21 + u31 + u33 + u37
 + u38 + u40 + u41 + u42 + u49 + u51 + u55 >= 4
Raio_30_Distrito_1:  u1 + u2 + u3 + u5 + u15 + u16 + u26 + u30 + u35 + u43
 + u46 + u50 + u52 + u53 + u59 >= 4
Raio_30_Distrito_2:  u1 + u2 + u3 + u5 + u15 + u16 + u25 + u26 + u30 + u43
 + u53 + u59 >= 4
Raio_30_Distrito_3:  u1 + u2 + u3 + u5 + u15 + u16 + u26 + u30 + u35 + u43
 + u50 + u52 + u53 + u59 >= 4
Raio_30_Distrito_4:  u0 + u4 + u14 + u17 + u29 + u30 + u31 + u32 + u33 + u37
 + u38 + u40 + u41 + u42 + u51 + u54 + u55 + u57 >= 4
Raio_30_Distrito_5:  u1 + u2 + u3 + u5 + u15 + u16 + u26 + u30 + u35 + u43
 + u46 + u50 + u52 + u53 + u59 >= 4
Raio_30_Distrito_6:  u6 + u7 + u10 + u22 + u36 >= 4
Raio_30_Distrito_7:  u6 + u7 + u8 + u9 + u11 + u22 + u27 + u34 + u36 + u39
 + u45 + u48 + u56 + u58 >= 4
Raio_30_Distrito_8:  u7 + u8 + u9 + u11 + u27 + u34 + u35 + u36 + u39 + u44
 + u45 + u48 + u52 + u56 + u58 >= 4
Raio_30_Distrito_9:  u7 + u8 + u9 + u11 + u22 + u27 + u28 + u34 + u36 + u39
 + u44 + u45 + u48 + u52 + u56 + u58 >= 4
Raio_30_Distrito_10:  u6 + u10 + u17 + u19 + u20 + u22 + u28 + u45 + u49 >= 4
Raio_30_Distrito_11:  u7 + u8 + u9 + u11 + u27 + u28 + u34 + u36 + u39 + u44
 + u45 + u48 + u52 + u56 + u58 >= 4
Raio_30_Distrito_12:  u12 + u18 + u38 + u41 >= 4
Raio_30_Distrito_13:  u13 + u24 + u25 + u47 + u57 >= 4
Raio_30_Distrito_14:  u0 + u4 + u14 + u18 + u31 + u33 + u37 + u38 + u40 + u41
 + u42 + u54 >= 4
Raio_30_Distrito_15:  u1 + u2 + u3 + u5 + u15 + u16 + u23 + u26 + u29 + u30
 + u32 + u43 + u44 + u46 + u50 + u52 + u53 + u59 >= 4
Raio_30_Distrito_16:  u1 + u2 + u3 + u5 + u15 + u16 + u26 + u30 + u32 + u35
 + u43 + u44 + u46 + u50 + u52 + u53 + u59 >= 4
Raio_30_Distrito_17:  u0 + u4 + u10 + u17 + u19 + u20 + u21 + u28 + u29 + u33
 + u37 + u42 + u49 + u51 + u55 >= 4
Raio_30_Distrito_18:  u12 + u14 + u18 + u33 + u38 + u41 + u42 >= 4
Raio_30_Distrito_19:  u0 + u10 + u17 + u19 + u20 + u21 + u33 + u37 + u42 + u49
 + u51 + u55 >= 4
Raio_30_Distrito_20:  u0 + u10 + u17 + u19 + u20 + u21 + u28 + u33 + u37 + u49
 + u51 + u55 >= 4
Raio_30_Distrito_21:  u0 + u17 + u19 + u20 + u21 + u33 + u37 + u38 + u42 + u49
 + u51 + u55 >= 4
Raio_30_Distrito_22:  u6 + u7 + u9 + u10 + u22 + u28 + u36 + u39 + u45 + u56
 >= 4
Raio_30_Distrito_23:  u15 + u23 + u28 + u29 + u32 + u34 + u37 + u39 + u44 + u45
 + u46 + u48 + u50 + u51 + u52 + u55 >= 4
Raio_30_Distrito_24:  u13 + u24 + u25 + u47 >= 4
Raio_30_Distrito_25:  u2 + u13 + u24 + u25 + u30 + u31 + u32 + u40 + u43 + u47
 + u54 + u57 >= 4
Raio_30_Distrito_26:  u1 + u2 + u3 + u5 + u15 + u16 + u26 + u35 + u43 + u44
 + u46 + u50 + u52 + u53 + u59 >= 4
Raio_30_Distrito_27:  u7 + u8 + u9 + u11 + u27 + u34 + u35 + u39 + u44 + u48
 + u50 + u52 + u56 + u58 >= 4
Raio_30_Distrito_28:  u9 + u10 + u11 + u17 + u20 + u22 + u23 + u28 + u29 + u34
 + u37 + u39 + u44 + u45 + u46 + u48 + u51 + u52 + u55 + u56
 >= 4
Raio_30_Distrito_29:  u4 + u15 + u17 + u23 + u28 + u29 + u30 + u31 + u32 + u33
 + u34 + u37 + u40 + u44 + u45 + u46 + u48 + u50 + u51 + u52
 + u55 >= 4
Raio_30_Distrito_30:  u1 + u2 + u3 + u4 + u5 + u15 + u16 + u25 + u29 + u30
 + u31 + u32 + u40 + u43 + u46 + u53 + u54 + u57 >= 4
Raio_30_Distrito_31:  u0 + u4 + u14 + u25 + u29 + u30 + u31 + u32 + u33 + u37
 + u38 + u40 + u41 + u42 + u51 + u54 + u57 >= 4
Raio_30_Distrito_32:  u4 + u15 + u16 + u23 + u25 + u29 + u30 + u31 + u32 + u33
 + u37 + u40 + u42 + u46 + u51 + u54 + u55 + u57 >= 4
Raio_30_Distrito_33:  u0 + u4 + u14 + u17 + u18 + u19 + u20 + u21 + u29 + u31
 + u32 + u33 + u37 + u38 + u40 + u41 + u42 + u51 + u54 + u55
 >= 4
Raio_30_Distrito_34:  u7 + u8 + u9 + u11 + u23 + u27 + u28 + u29 + u34 + u36
 + u39 + u44 + u45 + u46 + u48 + u50 + u52 + u56 + u58 >= 4
Raio_30_Distrito_35:  u1 + u3 + u5 + u8 + u16 + u26 + u27 + u35 + u44 + u50
 + u52 + u53 + u58 + u59 >= 4
Raio_30_Distrito_36:  u6 + u7 + u8 + u9 + u11 + u22 + u34 + u36 + u39 + u45
 + u48 + u56 + u58 >= 4
Raio_30_Distrito_37:  u0 + u4 + u14 + u17 + u19 + u20 + u21 + u23 + u28 + u29
 + u31 + u32 + u33 + u37 + u38 + u40 + u42 + u51 + u54 + u55
 >= 4
Raio_30_Distrito_38:  u0 + u4 + u12 + u14 + u18 + u21 + u31 + u33 + u37 + u38
 + u40 + u41 + u42 >= 4
Raio_30_Distrito_39:  u7 + u8 + u9 + u11 + u22 + u23 + u27 + u28 + u34 + u36
 + u39 + u44 + u45 + u46 + u48 + u50 + u52 + u56 + u58 >= 4
Raio_30_Distrito_40:  u0 + u4 + u14 + u25 + u29 + u30 + u31 + u32 + u33 + u37
 + u38 + u40 + u41 + u42 + u51 + u54 + u57 >= 4
Raio_30_Distrito_41:  u0 + u4 + u12 + u14 + u18 + u31 + u33 + u38 + u40 + u41
 + u42 + u54 >= 4
Raio_30_Distrito_42:  u0 + u4 + u14 + u17 + u18 + u19 + u21 + u31 + u32 + u33
 + u37 + u38 + u40 + u41 + u42 + u51 + u54 + u55 >= 4
Raio_30_Distrito_43:  u1 + u2 + u3 + u5 + u15 + u16 + u25 + u26 + u30 + u43
 + u53 + u59 >= 4
Raio_30_Distrito_44:  u8 + u9 + u11 + u15 + u16 + u23 + u26 + u27 + u28 + u29
 + u34 + u35 + u39 + u44 + u45 + u46 + u48 + u50 + u52 + u56
 + u58 >= 4
Raio_30_Distrito_45:  u7 + u8 + u9 + u10 + u11 + u22 + u23 + u28 + u29 + u34
 + u36 + u39 + u44 + u45 + u46 + u48 + u52 + u56 + u58 >= 4
Raio_30_Distrito_46:  u1 + u5 + u15 + u16 + u23 + u26 + u28 + u29 + u30 + u32
 + u34 + u39 + u44 + u45 + u46 + u48 + u50 + u52 + u53 >= 4
Raio_30_Distrito_47:  u13 + u24 + u25 + u47 + u54 + u57 >= 4
Raio_30_Distrito_48:  u7 + u8 + u9 + u11 + u23 + u27 + u28 + u29 + u34 + u36
 + u39 + u44 + u45 + u46 + u48 + u50 + u52 + u56 + u58 >= 4
Raio_30_Distrito_49:  u0 + u10 + u17 + u19 + u20 + u21 + u49 + u55 >= 4
Raio_30_Distrito_50:  u1 + u3 + u5 + u15 + u16 + u23 + u26 + u27 + u29 + u34
 + u35 + u39 + u44 + u46 + u48 + u50 + u52 + u53 + u58 + u59
 >= 4
Raio_30_Distrito_51:  u0 + u4 + u17 + u19 + u20 + u21 + u23 + u28 + u29 + u31
 + u32 + u33 + u37 + u40 + u42 + u51 + u55 >= 4
Raio_30_Distrito_52:  u1 + u3 + u5 + u8 + u9 + u11 + u15 + u16 + u23 + u26
 + u27 + u28 + u29 + u34 + u35 + u39 + u44 + u45 + u46 + u48
 + u50 + u52 + u53 + u58 >= 4
Raio_30_Distrito_53:  u1 + u2 + u3 + u5 + u15 + u16 + u26 + u30 + u35 + u43
 + u46 + u50 + u52 + u53 + u59 >= 4
Raio_30_Distrito_54:  u4 + u14 + u25 + u30 + u31 + u32 + u33 + u37 + u40 + u41
 + u42 + u47 + u54 + u57 >= 4
Raio_30_Distrito_55:  u0 + u4 + u17 + u19 + u20 + u21 + u23 + u28 + u29 + u32
 + u33 + u37 + u42 + u49 + u51 + u55 >= 4
Raio_30_Distrito_56:  u7 + u8 + u9 + u11 + u22 + u27 + u28 + u34 + u36 + u39
 + u44 + u45 + u48 + u56 + u58 >= 4
Raio_30_Distrito_57:  u4 + u13 + u25 + u30 + u31 + u32 + u40 + u47 + u54 + u57
 >= 4
Raio_30_Distrito_58:  u7 + u8 + u9 + u11 + u27 + u34 + u35 + u36 + u39 + u44
 + u45 + u48 + u50 + u52 + u56 + u58 >= 4
Raio_30_Distrito_59:  u1 + u2 + u3 + u5 + u15 + u16 + u26 + u35 + u43 + u50
 + u53 + u59 >= 4
Raio_40_Distrito_0:  u0 + u4 + u10 + u12 + u14 + u17 + u18 + u19 + u20 + u21
 + u23 + u28 + u29 + u31 + u32 + u33 + u37 + u38 + u40 + u41
 + u42 + u49 + u51 + u54 + u55 >= 5
Raio_40_Distrito_1:  u1 + u2 + u3 + u5 + u15 + u16 + u23 + u26 + u29 + u30
 + u35 + u43 + u44 + u46 + u50 + u52 + u53 + u59 >= 5
Raio_40_Distrito_2:  u1 + u2 + u3 + u5 + u13 + u15 + u16 + u25 + u26 + u30
 + u32 + u43 + u46 + u47 + u50 + u53 + u57 + u59 >= 5
Raio_40_Distrito_3:  u1 + u2 + u3 + u5 + u15 + u16 + u26 + u30 + u35 + u43
 + u44 + u46 + u50 + u52 + u53 + u59 >= 5
Raio_40_Distrito_4:  u0 + u4 + u14 + u15 + u16 + u17 + u19 + u20 + u21 + u23
 + u25 + u28 + u29 + u30 + u31 + u32 + u33 + u37 + u38 + u40
 + u41 + u42 + u44 + u46 + u51 + u54 + u55 + u57 >= 5
Raio_40_Distrito_5:  u1 + u2 + u3 + u5 + u15 + u16 + u23 + u25 + u26 + u29
 + u30 + u32 + u35 + u43 + u44 + u46 + u48 + u50 + u52 + u53
 + u59 >= 5
Raio_40_Distrito_6:  u6 + u7 + u9 + u10 + u22 + u36 + u39 + u45 + u56 >= 5
Raio_40_Distrito_7:  u6 + u7 + u8 + u9 + u10 + u11 + u22 + u27 + u28 + u34
 + u36 + u39 + u44 + u45 + u48 + u52 + u56 + u58 >= 5
Raio_40_Distrito_8:  u7 + u8 + u9 + u11 + u22 + u23 + u27 + u28 + u34 + u35
 + u36 + u39 + u44 + u45 + u46 + u48 + u50 + u52 + u56 + u58
 >= 5
Raio_40_Distrito_9:  u6 + u7 + u8 + u9 + u10 + u11 + u22 + u23 + u27 + u28
 + u34 + u35 + u36 + u39 + u44 + u45 + u46 + u48 + u50 + u52
 + u56 + u58 >= 5
Raio_40_Distrito_10:  u0 + u6 + u7 + u9 + u10 + u17 + u19 + u20 + u21 + u22
 + u23 + u28 + u34 + u36 + u39 + u45 + u48 + u49 + u51 + u55
 + u56 >= 5
Raio_40_Distrito_11:  u7 + u8 + u9 + u11 + u22 + u23 + u27 + u28 + u34 + u35
 + u36 + u39 + u44 + u45 + u46 + u48 + u50 + u52 + u56 + u58
 >= 5
Raio_40_Distrito_12:  u0 + u12 + u14 + u18 + u21 + u33 + u38 + u41 + u42 >= 5
Raio_40_Distrito_13:  u2 + u13 + u24 + u25 + u47 + u57 >= 5
Raio_40_Distrito_14:  u0 + u4 + u12 + u14 + u17 + u18 + u19 + u21 + u31 + u32
 + u33 + u37 + u38 + u40 + u41 + u42 + u51 + u54 + u55 + u57
 >= 5
Raio_40_Distrito_15:  u1 + u2 + u3 + u4 + u5 + u15 + u16 + u23 + u25 + u26
 + u28 + u29 + u30 + u31 + u32 + u34 + u35 + u37 + u39 + u40
 + u43 + u44 + u45 + u46 + u48 + u50 + u51 + u52 + u53 + u54
 + u59 >= 5
Raio_40_Distrito_16:  u1 + u2 + u3 + u4 + u5 + u15 + u16 + u23 + u25 + u26
 + u29 + u30 + u32 + u34 + u35 + u43 + u44 + u46 + u48 + u50
 + u52 + u53 + u54 + u59 >= 5
Raio_40_Distrito_17:  u0 + u4 + u10 + u14 + u17 + u19 + u20 + u21 + u23 + u28
 + u29 + u31 + u32 + u33 + u34 + u37 + u38 + u40 + u42 + u44
 + u45 + u49 + u51 + u55 >= 5
Raio_40_Distrito_18:  u0 + u12 + u14 + u18 + u21 + u33 + u38 + u41 + u42 >= 5
Raio_40_Distrito_19:  u0 + u4 + u10 + u14 + u17 + u19 + u20 + u21 + u23 + u28
 + u29 + u33 + u37 + u38 + u42 + u49 + u51 + u55 >= 5
Raio_40_Distrito_20:  u0 + u4 + u10 + u17 + u19 + u20 + u21 + u22 + u23 + u28
 + u29 + u33 + u34 + u37 + u38 + u42 + u45 + u49 + u51 + u55
 >= 5
Raio_40_Distrito_21:  u0 + u4 + u10 + u12 + u14 + u17 + u18 + u19 + u20 + u21
 + u33 + u37 + u38 + u41 + u42 + u49 + u51 + u55 >= 5
Raio_40_Distrito_22:  u6 + u7 + u8 + u9 + u10 + u11 + u20 + u22 + u28 + u34
 + u36 + u39 + u45 + u48 + u56 + u58 >= 5
Raio_40_Distrito_23:  u0 + u1 + u4 + u5 + u8 + u9 + u10 + u11 + u15 + u16
 + u17 + u19 + u20 + u23 + u26 + u27 + u28 + u29 + u30 + u31
 + u32 + u33 + u34 + u35 + u37 + u39 + u40 + u42 + u44 + u45
 + u46 + u48 + u50 + u51 + u52 + u53 + u55 + u56 + u58 >= 5
Raio_40_Distrito_24:  u13 + u24 + u25 + u47 + u57 >= 5
Raio_40_Distrito_25:  u2 + u4 + u5 + u13 + u15 + u16 + u24 + u25 + u30 + u31
 + u32 + u40 + u43 + u47 + u53 + u54 + u57 >= 5
Raio_40_Distrito_26:  u1 + u2 + u3 + u5 + u15 + u16 + u23 + u26 + u27 + u29
 + u30 + u34 + u35 + u43 + u44 + u46 + u48 + u50 + u52 + u53
 + u58 + u59 >= 5
Raio_40_Distrito_27:  u7 + u8 + u9 + u11 + u23 + u26 + u27 + u28 + u34 + u35
 + u36 + u39 + u44 + u45 + u46 + u48 + u50 + u52 + u56 + u58
 >= 5
Raio_40_Distrito_28:  u0 + u4 + u7 + u8 + u9 + u10 + u11 + u15 + u17 + u19
 + u20 + u22 + u23 + u27 + u28 + u29 + u32 + u34 + u36 + u37
 + u39 + u44 + u45 + u46 + u48 + u50 + u51 + u52 + u55 + u56
 + u58 >= 5
Raio_40_Distrito_29:  u0 + u1 + u4 + u5 + u15 + u16 + u17 + u19 + u20 + u23
 + u26 + u28 + u29 + u30 + u31 + u32 + u33 + u34 + u37 + u39
 + u40 + u42 + u44 + u45 + u46 + u48 + u50 + u51 + u52 + u53
 + u54 + u55 >= 5
Raio_40_Distrito_30:  u1 + u2 + u3 + u4 + u5 + u15 + u16 + u23 + u25 + u26
 + u29 + u30 + u31 + u32 + u37 + u40 + u42 + u43 + u44 + u46
 + u47 + u50 + u51 + u52 + u53 + u54 + u57 + u59 >= 5
Raio_40_Distrito_31:  u0 + u4 + u14 + u15 + u17 + u23 + u25 + u29 + u30 + u31
 + u32 + u33 + u37 + u38 + u40 + u41 + u42 + u46 + u47 + u51
 + u54 + u55 + u57 >= 5
Raio_40_Distrito_32:  u0 + u2 + u4 + u5 + u14 + u15 + u16 + u17 + u23 + u25
 + u28 + u29 + u30 + u31 + u32 + u33 + u37 + u38 + u40 + u41
 + u42 + u43 + u44 + u46 + u47 + u50 + u51 + u52 + u53 + u54
 + u55 + u57 >= 5
Raio_40_Distrito_33:  u0 + u4 + u12 + u14 + u17 + u18 + u19 + u20 + u21 + u23
 + u29 + u31 + u32 + u33 + u37 + u38 + u40 + u41 + u42 + u49
 + u51 + u54 + u55 + u57 >= 5
Raio_40_Distrito_34:  u7 + u8 + u9 + u10 + u11 + u15 + u16 + u17 + u20 + u22
 + u23 + u26 + u27 + u28 + u29 + u34 + u35 + u36 + u37 + u39
 + u44 + u45 + u46 + u48 + u50 + u51 + u52 + u55 + u56 + u58
 >= 5
Raio_40_Distrito_35:  u1 + u3 + u5 + u8 + u9 + u11 + u15 + u16 + u23 + u26
 + u27 + u34 + u35 + u39 + u43 + u44 + u46 + u48 + u50 + u52
 + u53 + u58 + u59 >= 5
Raio_40_Distrito_36:  u6 + u7 + u8 + u9 + u10 + u11 + u22 + u27 + u28 + u34
 + u36 + u39 + u44 + u45 + u48 + u56 + u58 >= 5
Raio_40_Distrito_37:  u0 + u4 + u14 + u15 + u17 + u19 + u20 + u21 + u23 + u28
 + u29 + u30 + u31 + u32 + u33 + u34 + u37 + u38 + u40 + u41
 + u42 + u44 + u45 + u46 + u48 + u49 + u51 + u54 + u55 >= 5
Raio_40_Distrito_38:  u0 + u4 + u12 + u14 + u17 + u18 + u19 + u20 + u21 + u31
 + u32 + u33 + u37 + u38 + u40 + u41 + u42 + u51 + u54 + u55
 >= 5
Raio_40_Distrito_39:  u6 + u7 + u8 + u9 + u10 + u11 + u15 + u22 + u23 + u27
 + u28 + u29 + u34 + u35 + u36 + u39 + u44 + u45 + u46 + u48
 + u50 + u52 + u56 + u58 >= 5
Raio_40_Distrito_40:  u0 + u4 + u14 + u15 + u17 + u23 + u25 + u29 + u30 + u31
 + u32 + u33 + u37 + u38 + u40 + u41 + u42 + u46 + u47 + u51
 + u54 + u55 + u57 >= 5
Raio_40_Distrito_41:  u0 + u4 + u12 + u14 + u18 + u21 + u31 + u32 + u33 + u37
 + u38 + u40 + u41 + u42 + u51 + u54 + u55 + u57 >= 5
Raio_40_Distrito_42:  u0 + u4 + u12 + u14 + u17 + u18 + u19 + u20 + u21 + u23
 + u29 + u30 + u31 + u32 + u33 + u37 + u38 + u40 + u41 + u42
 + u51 + u54 + u55 + u57 >= 5
Raio_40_Distrito_43:  u1 + u2 + u3 + u5 + u15 + u16 + u25 + u26 + u30 + u32
 + u35 + u43 + u46 + u47 + u50 + u52 + u53 + u54 + u57 + u59
 >= 5
Raio_40_Distrito_44:  u1 + u3 + u4 + u5 + u7 + u8 + u9 + u11 + u15 + u16
 + u17 + u23 + u26 + u27 + u28 + u29 + u30 + u32 + u34 + u35
 + u36 + u37 + u39 + u44 + u45 + u46 + u48 + u50 + u51 + u52
 + u53 + u55 + u56 + u58 >= 5
Raio_40_Distrito_45:  u6 + u7 + u8 + u9 + u10 + u11 + u15 + u17 + u20 + u22
 + u23 + u27 + u28 + u29 + u34 + u36 + u37 + u39 + u44 + u45
 + u46 + u48 + u50 + u51 + u52 + u55 + u56 + u58 >= 5
Raio_40_Distrito_46:  u1 + u2 + u3 + u4 + u5 + u8 + u9 + u11 + u15 + u16
 + u23 + u26 + u27 + u28 + u29 + u30 + u31 + u32 + u34 + u35
 + u37 + u39 + u40 + u43 + u44 + u45 + u46 + u48 + u50 + u51
 + u52 + u53 + u54 + u55 + u56 + u58 + u59 >= 5
Raio_40_Distrito_47:  u2 + u13 + u24 + u25 + u30 + u31 + u32 + u40 + u43 + u47
 + u54 + u57 >= 5
Raio_40_Distrito_48:  u5 + u7 + u8 + u9 + u10 + u11 + u15 + u16 + u22 + u23
 + u26 + u27 + u28 + u29 + u34 + u35 + u36 + u37 + u39 + u44
 + u45 + u46 + u48 + u50 + u51 + u52 + u55 + u56 + u58 >= 5
Raio_40_Distrito_49:  u0 + u10 + u17 + u19 + u20 + u21 + u33 + u37 + u49 + u51
 + u55 >= 5
Raio_40_Distrito_50:  u1 + u2 + u3 + u5 + u8 + u9 + u11 + u15 + u16 + u23
 + u26 + u27 + u28 + u29 + u30 + u32 + u34 + u35 + u39 + u43
 + u44 + u45 + u46 + u48 + u50 + u52 + u53 + u58 + u59 >= 5
Raio_40_Distrito_51:  u0 + u4 + u10 + u14 + u15 + u17 + u19 + u20 + u21 + u23
 + u28 + u29 + u30 + u31 + u32 + u33 + u34 + u37 + u38 + u40
 + u41 + u42 + u44 + u45 + u46 + u48 + u49 + u51 + u54 + u55
 >= 5
Raio_40_Distrito_52:  u1 + u3 + u5 + u7 + u8 + u9 + u11 + u15 + u16 + u23
 + u26 + u27 + u28 + u29 + u30 + u32 + u34 + u35 + u39 + u43
 + u44 + u45 + u46 + u48 + u50 + u52 + u53 + u56 + u58 + u59
 >= 5
Raio_40_Distrito_53:  u1 + u2 + u3 + u5 + u15 + u16 + u23 + u25 + u26 + u29
 + u30 + u32 + u35 + u43 + u44 + u46 + u50 + u52 + u53 + u59
 >= 5
Raio_40_Distrito_54:  u0 + u4 + u14 + u15 + u16 + u25 + u29 + u30 + u31 + u32
 + u33 + u37 + u38 + u40 + u41 + u42 + u43 + u46 + u47 + u51
 + u54 + u55 + u57 >= 5
Raio_40_Distrito_55:  u0 + u4 + u10 + u14 + u17 + u19 + u20 + u21 + u23 + u28
 + u29 + u31 + u32 + u33 + u34 + u37 + u38 + u40 + u41 + u42
 + u44 + u45 + u46 + u48 + u49 + u51 + u54 + u55 >= 5
Raio_40_Distrito_56:  u6 + u7 + u8 + u9 + u10 + u11 + u22 + u23 + u27 + u28
 + u34 + u36 + u39 + u44 + u45 + u46 + u48 + u52 + u56 + u58
 >= 5
Raio_40_Distrito_57:  u2 + u4 + u13 + u14 + u24 + u25 + u30 + u31 + u32 + u33
 + u40 + u41 + u42 + u43 + u47 + u54 + u57 >= 5
Raio_40_Distrito_58:  u7 + u8 + u9 + u11 + u22 + u23 + u26 + u27 + u28 + u34
 + u35 + u36 + u39 + u44 + u45 + u46 + u48 + u50 + u52 + u56
 + u58 >= 5
Raio_40_Distrito_59:  u1 + u2 + u3 + u5 + u15 + u16 + u26 + u30 + u35 + u43
 + u46 + u50 + u52 + u53 + u59 >= 5
DistMinUpa_5_Vizinho_16:  u5 + u16 <= 1
DistMinUpa_7_Vizinho_36:  u7 + u36 <= 1
DistMinUpa_8_Vizinho_58:  u8 + u58 <= 1
DistMinUpa_16_Vizinho_5:  u5 + u16 <= 1
DistMinUpa_31_Vizinho_40:  u31 + u40 <= 1
DistMinUpa_34_Vizinho_48:  u34 + u48 <= 1
DistMinUpa_36_Vizinho_7:  u7 + u36 <= 1
DistMinUpa_40_Vizinho_31:  u31 + u40 <= 1
DistMinUpa_48_Vizinho_34:  u34 + u48 <= 1
DistMinUpa_58_Vizinho_8:  u8 + u58 <= 1
Bounds
 0 <= u0 <= 1
 0 <= u1 <= 1
 0 <= u2 <= 1
 0 <= u3 <= 1
 0 <= u4 <= 1
 0 <= u5 <= 1
 0 <= u6 <= 1
 0 <= u7 <= 1
 0 <= u8 <= 1
 0 <= u9 <= 1
 0 <= u10 <= 1
 0 <= u11 <= 1
 0 <= u12 <= 1
 0 <= u13 <= 1
 0 <= u14 <= 1
 0 <= u15 <= 1
 0 <= u16 <= 1
 0 <= u17 <= 1
 0 <= u18 <= 1
 0 <= u19 <= 1
 0 <= u20 <= 1
 0 <= u21 <= 1
 0 <= u22 <= 1
 0 <= u23 <= 1
 0 <= u24 <= 1
 0 <= u25 <= 1
 0 <= u26 <= 1
 0 <= u27 <= 1
 0 <= u28 <= 1
 0 <= u29 <= 1
 0 <= u30 <= 1
 0 <= u31 <= 1
 0 <= u32 <= 1
 0 <= u33 <= 1
 0 <= u34 <= 1
 0 <= u35 <= 1
 0 <= u36 <= 1
 0 <= u37 <= 1
 0 <= u38 <= 1
 0 <= u39 <= 1
 0 <= u40 <= 1
 0 <= u41 <= 1
 0 <= u42 <= 1
 0 <= u43 <= 1
 0 <= u44 <= 1
 0 <= u45 <= 1
 0 <= u46 <= 1
 0 <= u47 <= 1
 0 <= u48 <= 1
 0 <= u49 <= 1
 0 <= u50 <= 1
 0 <= u51 <= 1
 0 <= u52 <= 1
 0 <= u53 <= 1
 0 <= u54 <= 1
 0 <= u55 <= 1
 0 <= u56 <= 1
 0 <= u57 <= 1
 0 <= u58 <= 1
 0 <= u59 <= 1
Integers
u0 u1 u2 u3 u4 u5 u6 u7 u8 u9 
u10 u11 u12 u13 u14 u15 u16 u17 u18 u19 
u20 u21 u22 u23 u24 u25 u26 u27 u28 u29 
u30 u31 u32 u33 u34 u35 u36 u37 u38 u39 
u40 u41 u42 u43 u44 u45 u46 u47 u48 u49 
u50 u51 u52 u53 u54 u55 u56 u57 u58 u59 
End
